
(set-logic ALL) 

(declare-datatype MyList ((Nil) (Cons (head Real) (tail MyList)) )) 
(declare-fun l0 () MyList) 
(declare-fun l1 () MyList) 
(declare-fun l2 () MyList) 
(declare-fun l3 () MyList) 
(declare-fun i0 () Real) 
(declare-fun i1 () Real) 
(assert (is-Nil l2) )
(assert (not (= l0 l3)) )
(assert (= l3 l3) )
(assert (is-Nil Nil) )
(assert (or (= l1 Nil) (is-Cons Nil) (= l3 l0) (= l2 l3)) )
(assert (= l2 Nil) )
(assert (and (= l3 Nil) (is-Nil Nil) (= l0 l0) (= l0 Nil)) )
(assert (= l3 Nil) )
(check-sat)
